p tw 57 6841 2 
1 3 
1 4 
1 5 
1 6 
1 7 
1 8 
1 9 
1 10 
1 11 
1 12 
1 13 
1 14 
1 15 
1 16 
1 17 
1 20 
1 26 
1 31 
1 36 
1 37 
1 38 
1 39 
1 40 
2 3 
2 4 
2 5 
2 6 
2 7 
2 8 
2 9 
2 10 
2 13 
2 18 
2 19 
2 20 
2 21 
2 22 
2 23 
2 24 
2 29 
2 34 
2 38 
2 45 
2 50 
2 51 
2 52 
3 4 
3 5 
3 6 
3 7 
3 8 
3 9 
3 11 
3 16 
3 18 
3 22 
3 25 
3 26 
3 27 
3 28 
3 29 
3 30 
3 32 
3 37 
3 50 
3 53 
3 54 
3 55 
4 5 
4 6 
4 7 
4 8 
4 9 
4 11 
4 12 
4 19 
4 21 
4 25 
4 31 
4 32 
4 33 
4 34 
4 35 
4 40 
4 46 
4 49 
4 50 
4 56 
4 57 
5 6 
5 7 
5 8 
5 9 
5 13 
5 15 
5 18 
5 21 
5 27 
5 32 
5 34 
5 36 
5 37 
5 41 
5 42 
5 43 
5 44 
5 47 
5 48 
5 49 
6 7 
6 8 
6 9 
6 14 
6 17 
6 22 
6 24 
6 25 
6 28 
6 33 
6 36 
6 40 
6 41 
6 44 
6 45 
6 46 
6 47 
6 52 
6 54 
7 8 
7 9 
7 12 
7 14 
7 20 
7 23 
7 27 
7 29 
7 35 
7 39 
7 41 
7 44 
7 48 
7 51 
7 53 
7 54 
7 56 
7 57 
8 9 
8 10 
8 15 
8 24 
8 28 
8 30 
8 31 
8 35 
8 39 
8 42 
8 43 
8 46 
8 49 
8 51 
8 52 
8 53 
8 55 
9 16 
9 17 
9 19 
9 23 
9 26 
9 30 
9 33 
9 38 
9 42 
9 43 
9 45 
9 47 
9 48 
9 55 
9 56 
9 57 
10 11 
10 12 
10 13 
10 14 
10 15 
10 16 
10 17 
10 18 
10 19 
10 20 
10 21 
10 22 
10 23 
10 24 
10 28 
10 35 
10 39 
10 43 
10 49 
10 52 
10 55 
11 12 
11 13 
11 14 
11 15 
11 16 
11 17 
11 18 
11 21 
11 25 
11 26 
11 27 
11 28 
11 29 
11 30 
11 40 
11 46 
11 49 
11 50 
11 56 
11 57 
12 13 
12 14 
12 15 
12 16 
12 17 
12 19 
12 23 
12 25 
12 29 
12 31 
12 32 
12 33 
12 34 
12 35 
12 39 
12 41 
12 44 
12 53 
12 56 
13 14 
13 15 
13 16 
13 17 
13 21 
13 27 
13 29 
13 32 
13 34 
13 36 
13 38 
13 41 
13 42 
13 43 
13 45 
13 50 
13 51 
13 52 
14 15 
14 16 
14 17 
14 20 
14 22 
14 27 
14 28 
14 33 
14 35 
14 36 
14 44 
14 45 
14 46 
14 48 
14 51 
14 54 
14 57 
15 16 
15 17 
15 18 
15 24 
15 30 
15 31 
15 34 
15 37 
15 42 
15 44 
15 46 
15 47 
15 48 
15 49 
15 51 
15 53 
16 17 
16 22 
16 23 
16 30 
16 32 
16 33 
16 37 
16 38 
16 43 
16 47 
16 50 
16 53 
16 54 
16 55 
16 57 
17 19 
17 24 
17 25 
17 26 
17 40 
17 41 
17 42 
17 45 
17 47 
17 48 
17 52 
17 54 
17 55 
17 56 
18 19 
18 20 
18 21 
18 22 
18 23 
18 24 
18 25 
18 26 
18 27 
18 28 
18 29 
18 30 
18 34 
18 37 
18 44 
18 47 
18 48 
18 49 
19 20 
19 21 
19 22 
19 23 
19 24 
19 25 
19 26 
19 31 
19 32 
19 33 
19 34 
19 35 
19 42 
19 45 
19 48 
19 55 
19 56 
20 21 
20 22 
20 23 
20 24 
20 26 
20 27 
20 31 
20 35 
20 36 
20 37 
20 38 
20 39 
20 40 
20 48 
20 51 
20 54 
20 57 
21 22 
21 23 
21 24 
21 27 
21 32 
21 36 
21 40 
21 41 
21 42 
21 43 
21 46 
21 49 
21 50 
21 56 
21 57 
22 23 
22 24 
22 28 
22 32 
22 33 
22 36 
22 37 
22 44 
22 45 
22 46 
22 50 
22 53 
22 54 
22 55 
23 24 
23 29 
23 30 
23 33 
23 38 
23 39 
23 41 
23 43 
23 44 
23 47 
23 53 
23 56 
23 57 
24 25 
24 30 
24 31 
24 40 
24 41 
24 42 
24 46 
24 47 
24 51 
24 52 
24 53 
24 54 
25 26 
25 27 
25 28 
25 29 
25 30 
25 31 
25 32 
25 33 
25 34 
25 35 
25 40 
25 41 
25 47 
25 52 
25 54 
26 27 
26 28 
26 29 
26 30 
26 31 
26 36 
26 37 
26 38 
26 39 
26 40 
26 42 
26 45 
26 48 
26 55 
26 56 
27 28 
27 29 
27 30 
27 32 
27 35 
27 36 
27 41 
27 42 
27 43 
27 48 
27 51 
27 54 
27 57 
28 29 
28 30 
28 33 
28 35 
28 36 
28 39 
28 43 
28 44 
28 45 
28 46 
28 49 
28 52 
28 55 
29 30 
29 34 
29 38 
29 39 
29 41 
29 44 
29 45 
29 50 
29 51 
29 52 
29 53 
29 56 
30 31 
30 33 
30 38 
30 42 
30 43 
30 46 
30 47 
30 51 
30 53 
30 57 
31 32 
31 33 
31 34 
31 35 
31 36 
31 37 
31 38 
31 39 
31 40 
31 42 
31 46 
31 51 
31 53 
32 33 
32 34 
32 35 
32 36 
32 37 
32 41 
32 42 
32 43 
32 50 
32 53 
32 54 
32 55 
33 34 
33 35 
33 36 
33 38 
33 43 
33 44 
33 45 
33 46 
33 47 
33 57 
34 35 
34 37 
34 38 
34 44 
34 45 
34 47 
34 48 
34 49 
34 50 
34 51 
34 52 
35 39 
35 43 
35 48 
35 49 
35 51 
35 52 
35 54 
35 55 
35 57 
36 37 
36 38 
36 39 
36 40 
36 41 
36 42 
36 43 
36 44 
36 45 
36 46 
37 38 
37 39 
37 40 
37 44 
37 47 
37 48 
37 49 
37 50 
37 53 
37 54 
37 55 
38 39 
38 40 
38 43 
38 45 
38 47 
38 50 
38 51 
38 52 
38 57 
39 40 
39 41 
39 43 
39 44 
39 49 
39 52 
39 53 
39 55 
39 56 
40 41 
40 46 
40 47 
40 49 
40 50 
40 52 
40 54 
40 56 
40 57 
41 42 
41 43 
41 44 
41 47 
41 52 
41 53 
41 54 
41 56 
42 43 
42 45 
42 46 
42 48 
42 51 
42 53 
42 55 
42 56 
43 47 
43 49 
43 52 
43 55 
43 57 
44 45 
44 46 
44 47 
44 48 
44 49 
44 53 
44 56 
45 46 
45 48 
45 50 
45 51 
45 52 
45 55 
45 56 
46 49 
46 50 
46 51 
46 53 
46 56 
46 57 
47 48 
47 49 
47 52 
47 54 
47 57 
48 49 
48 51 
48 54 
48 55 
48 56 
48 57 
49 50 
49 52 
49 55 
49 56 
49 57 
50 51 
50 52 
50 53 
50 54 
50 55 
50 56 
50 57 
51 52 
51 53 
51 54 
51 57 
52 54 
52 55 
53 54 
53 55 
53 56 
54 55 
54 57 
55 56 
56 57 
